c 28_4_checker.cnf
c
c field = 28
c formula set type = 4_checker
c
p cnf 5 22
46 
48 
50 
52 
-44 
47 
49 
51 
53 
-45 
46 
48 
50 
52 
-56 
47 
49 
51 
53 
-57 
48 
50 
52 
56 
-46 
49 
51 
53 
57 
-47 
48 
50 
52 
56 
-58 
49 
51 
53 
57 
-59 
50 
52 
56 
58 
-48 
51 
53 
57 
59 
-49 
24 
84 
114 
144 
-174 
25 
85 
115 
145 
-175 
84 
114 
144 
174 
-24 
85 
115 
145 
175 
-25 
84 
114 
144 
174 
-204 
85 
115 
145 
175 
-205 
26 
82 
110 
138 
-166 
27 
83 
111 
139 
-167 
82 
110 
138 
166 
-26 
83 
111 
139 
167 
-27 
82 
110 
138 
166 
-194 
83 
111 
139 
167 
-195 
